sat
(
  (define-fun Add ((x0 U)) U
    (ite (= (as @2 U) x0) (as @3 U) (as @d2 U)))
  (define-fun b () Bool
    false)
  (define-fun u () U
    (as @2 U))
  (define-fun t () U
    (as @3 U))
  (define-fun z () U
    (as @2 U))
)
